/*********************************************
 * OPL 12.6.0.0 Data
 * Author: Adrian Rodriguez Bazaga, Pau Rodriguez Esmerats
 * Creation Date: 06/12/2017 at 23:03:07
 *********************************************/

nNurses=259;
maxConsec=2;
maxPresence=7;
maxHours=5;
minHours=1;
hours=24;
demand= [39 43 63 60 43 63 60 44 49 23 7 3 10 5 16 4 11 3 9 2 31 68 43 44  ];
